p edges 185 2221
e 184 185 
e 183 185 
e 183 184 
e 182 185 
e 182 184 
e 182 183 
e 181 185 
e 181 184 
e 181 183 
e 181 182 
e 180 185 
e 180 183 
e 180 182 
e 180 181 
e 179 184 
e 179 183 
e 179 182 
e 179 181 
e 179 180 
e 178 185 
e 178 182 
e 178 181 
e 178 180 
e 178 179 
e 177 180 
e 177 179 
e 177 178 
e 176 179 
e 176 178 
e 176 177 
e 175 177 
e 175 176 
e 174 176 
e 174 175 
e 173 176 
e 173 175 
e 173 174 
e 172 176 
e 172 175 
e 172 174 
e 172 173 
e 171 175 
e 171 174 
e 171 173 
e 171 172 
e 170 175 
e 170 172 
e 170 171 
e 169 172 
e 169 171 
e 169 170 
e 168 170 
e 168 169 
e 167 172 
e 167 169 
e 167 168 
e 166 170 
e 166 169 
e 166 168 
e 166 167 
e 165 168 
e 165 167 
e 165 166 
e 164 168 
e 164 166 
e 164 165 
e 163 165 
e 163 164 
e 162 168 
e 162 166 
e 162 165 
e 162 164 
e 162 163 
e 161 168 
e 161 164 
e 161 163 
e 161 162 
e 160 170 
e 160 169 
e 160 168 
e 160 167 
e 160 166 
e 160 165 
e 160 164 
e 160 163 
e 160 162 
e 160 161 
e 159 168 
e 159 161 
e 159 160 
e 158 171 
e 158 168 
e 158 161 
e 158 160 
e 158 159 
e 157 171 
e 157 170 
e 157 168 
e 157 166 
e 157 160 
e 157 159 
e 157 158 
e 156 171 
e 156 170 
e 156 160 
e 156 159 
e 156 158 
e 156 157 
e 155 173 
e 155 172 
e 155 171 
e 155 170 
e 155 168 
e 155 159 
e 155 158 
e 155 157 
e 155 156 
e 154 175 
e 154 174 
e 154 173 
e 154 172 
e 154 171 
e 154 170 
e 154 158 
e 154 157 
e 154 156 
e 154 155 
e 153 171 
e 153 170 
e 153 159 
e 153 158 
e 153 157 
e 153 156 
e 153 155 
e 153 154 
e 152 174 
e 152 171 
e 152 156 
e 152 155 
e 152 154 
e 152 153 
e 151 158 
e 151 156 
e 151 155 
e 151 154 
e 151 153 
e 151 152 
e 150 173 
e 150 171 
e 150 159 
e 150 158 
e 150 156 
e 150 155 
e 150 154 
e 150 153 
e 150 152 
e 150 151 
e 149 175 
e 149 174 
e 149 173 
e 149 172 
e 149 171 
e 149 170 
e 149 158 
e 149 157 
e 149 156 
e 149 155 
e 149 154 
e 149 153 
e 149 152 
e 149 151 
e 149 150 
e 148 174 
e 148 173 
e 148 171 
e 148 154 
e 148 152 
e 148 151 
e 148 150 
e 148 149 
e 147 158 
e 147 155 
e 147 152 
e 147 151 
e 147 150 
e 147 149 
e 147 148 
e 146 173 
e 146 171 
e 146 158 
e 146 155 
e 146 154 
e 146 151 
e 146 150 
e 146 149 
e 146 148 
e 146 147 
e 145 176 
e 145 174 
e 145 173 
e 145 171 
e 145 155 
e 145 154 
e 145 152 
e 145 150 
e 145 149 
e 145 148 
e 145 147 
e 145 146 
e 144 174 
e 144 152 
e 144 151 
e 144 149 
e 144 148 
e 144 147 
e 144 146 
e 144 145 
e 143 174 
e 143 173 
e 143 150 
e 143 149 
e 143 148 
e 143 147 
e 143 146 
e 143 145 
e 143 144 
e 142 147 
e 142 146 
e 142 144 
e 142 143 
e 141 173 
e 141 158 
e 141 155 
e 141 151 
e 141 150 
e 141 149 
e 141 147 
e 141 146 
e 141 145 
e 141 144 
e 141 143 
e 141 142 
e 140 150 
e 140 147 
e 140 146 
e 140 142 
e 140 141 
e 139 146 
e 139 143 
e 139 142 
e 139 141 
e 139 140 
e 138 158 
e 138 146 
e 138 141 
e 138 140 
e 138 139 
e 137 142 
e 137 140 
e 137 139 
e 137 138 
e 136 139 
e 136 138 
e 136 137 
e 135 139 
e 135 138 
e 135 137 
e 135 136 
e 134 137 
e 134 136 
e 134 135 
e 133 136 
e 133 135 
e 133 134 
e 132 134 
e 132 133 
e 131 135 
e 131 133 
e 131 132 
e 130 133 
e 130 132 
e 130 131 
e 129 133 
e 129 132 
e 129 131 
e 129 130 
e 128 135 
e 128 133 
e 128 132 
e 128 131 
e 128 130 
e 128 129 
e 127 137 
e 127 135 
e 127 134 
e 127 133 
e 127 132 
e 127 131 
e 127 129 
e 127 128 
e 126 137 
e 126 136 
e 126 135 
e 126 134 
e 126 133 
e 126 132 
e 126 129 
e 126 128 
e 126 127 
e 125 139 
e 125 138 
e 125 137 
e 125 136 
e 125 135 
e 125 134 
e 125 133 
e 125 132 
e 125 128 
e 125 127 
e 125 126 
e 124 139 
e 124 138 
e 124 137 
e 124 136 
e 124 135 
e 124 134 
e 124 133 
e 124 132 
e 124 126 
e 124 125 
e 123 139 
e 123 137 
e 123 136 
e 123 134 
e 123 126 
e 123 125 
e 123 124 
e 122 146 
e 122 142 
e 122 141 
e 122 140 
e 122 139 
e 122 138 
e 122 137 
e 122 136 
e 122 135 
e 122 125 
e 122 124 
e 122 123 
e 121 167 
e 121 158 
e 121 141 
e 121 139 
e 121 138 
e 121 137 
e 121 136 
e 121 135 
e 121 134 
e 121 125 
e 121 124 
e 121 123 
e 121 122 
e 120 158 
e 120 155 
e 120 150 
e 120 149 
e 120 147 
e 120 146 
e 120 145 
e 120 143 
e 120 142 
e 120 141 
e 120 140 
e 120 139 
e 120 138 
e 120 137 
e 120 136 
e 120 123 
e 120 122 
e 120 121 
e 119 158 
e 119 150 
e 119 147 
e 119 146 
e 119 142 
e 119 141 
e 119 140 
e 119 139 
e 119 138 
e 119 137 
e 119 136 
e 119 122 
e 119 121 
e 119 120 
e 118 173 
e 118 171 
e 118 159 
e 118 158 
e 118 155 
e 118 154 
e 118 151 
e 118 150 
e 118 149 
e 118 147 
e 118 146 
e 118 145 
e 118 143 
e 118 142 
e 118 141 
e 118 140 
e 118 139 
e 118 138 
e 118 122 
e 118 121 
e 118 120 
e 118 119 
e 117 158 
e 117 150 
e 117 147 
e 117 146 
e 117 142 
e 117 141 
e 117 140 
e 117 139 
e 117 138 
e 117 120 
e 117 119 
e 117 118 
e 116 159 
e 116 158 
e 116 155 
e 116 151 
e 116 150 
e 116 147 
e 116 141 
e 116 140 
e 116 118 
e 116 117 
e 115 161 
e 115 159 
e 115 158 
e 115 150 
e 115 119 
e 115 117 
e 115 116 
e 114 161 
e 114 150 
e 114 140 
e 114 138 
e 114 119 
e 114 118 
e 114 117 
e 114 116 
e 114 115 
e 113 168 
e 113 161 
e 113 160 
e 113 159 
e 113 158 
e 113 156 
e 113 155 
e 113 154 
e 113 153 
e 113 151 
e 113 150 
e 113 149 
e 113 147 
e 113 146 
e 113 141 
e 113 140 
e 113 138 
e 113 120 
e 113 119 
e 113 118 
e 113 117 
e 113 116 
e 113 115 
e 113 114 
e 112 161 
e 112 158 
e 112 150 
e 112 146 
e 112 141 
e 112 140 
e 112 139 
e 112 138 
e 112 137 
e 112 136 
e 112 122 
e 112 121 
e 112 120 
e 112 119 
e 112 118 
e 112 117 
e 112 115 
e 112 114 
e 112 113 
e 111 173 
e 111 171 
e 111 168 
e 111 160 
e 111 159 
e 111 158 
e 111 155 
e 111 154 
e 111 150 
e 111 149 
e 111 147 
e 111 146 
e 111 145 
e 111 143 
e 111 142 
e 111 141 
e 111 140 
e 111 139 
e 111 138 
e 111 122 
e 111 121 
e 111 120 
e 111 119 
e 111 118 
e 111 117 
e 111 116 
e 111 113 
e 111 112 
e 110 169 
e 110 168 
e 110 167 
e 110 166 
e 110 160 
e 110 158 
e 110 141 
e 110 138 
e 110 137 
e 110 136 
e 110 124 
e 110 123 
e 110 122 
e 110 121 
e 110 120 
e 110 119 
e 110 118 
e 110 113 
e 110 112 
e 110 111 
e 109 173 
e 109 172 
e 109 169 
e 109 158 
e 109 155 
e 109 150 
e 109 149 
e 109 147 
e 109 146 
e 109 145 
e 109 143 
e 109 141 
e 109 139 
e 109 138 
e 109 137 
e 109 136 
e 109 123 
e 109 122 
e 109 121 
e 109 120 
e 109 119 
e 109 118 
e 109 113 
e 109 112 
e 109 111 
e 109 110 
e 108 173 
e 108 172 
e 108 169 
e 108 167 
e 108 121 
e 108 120 
e 108 111 
e 108 110 
e 108 109 
e 107 176 
e 107 174 
e 107 173 
e 107 172 
e 107 171 
e 107 169 
e 107 158 
e 107 155 
e 107 154 
e 107 150 
e 107 149 
e 107 146 
e 107 145 
e 107 143 
e 107 141 
e 107 120 
e 107 118 
e 107 111 
e 107 109 
e 107 108 
e 106 174 
e 106 173 
e 106 172 
e 106 171 
e 106 170 
e 106 169 
e 106 158 
e 106 157 
e 106 155 
e 106 154 
e 106 150 
e 106 149 
e 106 147 
e 106 146 
e 106 145 
e 106 143 
e 106 141 
e 106 120 
e 106 118 
e 106 113 
e 106 111 
e 106 110 
e 106 109 
e 106 108 
e 106 107 
e 105 172 
e 105 169 
e 105 168 
e 105 167 
e 105 166 
e 105 158 
e 105 155 
e 105 138 
e 105 136 
e 105 121 
e 105 120 
e 105 113 
e 105 112 
e 105 111 
e 105 110 
e 105 109 
e 105 108 
e 105 107 
e 105 106 
e 104 171 
e 104 169 
e 104 168 
e 104 167 
e 104 166 
e 104 160 
e 104 159 
e 104 158 
e 104 155 
e 104 154 
e 104 150 
e 104 149 
e 104 146 
e 104 141 
e 104 121 
e 104 120 
e 104 118 
e 104 113 
e 104 112 
e 104 111 
e 104 110 
e 104 109 
e 104 107 
e 104 106 
e 104 105 
e 103 169 
e 103 168 
e 103 167 
e 103 166 
e 103 165 
e 103 164 
e 103 160 
e 103 158 
e 103 141 
e 103 138 
e 103 136 
e 103 121 
e 103 120 
e 103 119 
e 103 118 
e 103 114 
e 103 113 
e 103 112 
e 103 111 
e 103 110 
e 103 109 
e 103 105 
e 103 104 
e 102 168 
e 102 166 
e 102 164 
e 102 163 
e 102 162 
e 102 161 
e 102 160 
e 102 159 
e 102 158 
e 102 114 
e 102 113 
e 102 112 
e 102 111 
e 102 110 
e 102 104 
e 102 103 
e 101 168 
e 101 167 
e 101 165 
e 101 164 
e 101 163 
e 101 162 
e 101 161 
e 101 160 
e 101 138 
e 101 114 
e 101 112 
e 101 110 
e 101 103 
e 101 102 
e 100 161 
e 100 138 
e 100 137 
e 100 136 
e 100 121 
e 100 120 
e 100 119 
e 100 114 
e 100 113 
e 100 112 
e 100 111 
e 100 110 
e 100 103 
e 100 102 
e 100 101 
e 99 168 
e 99 167 
e 99 165 
e 99 138 
e 99 137 
e 99 136 
e 99 134 
e 99 124 
e 99 123 
e 99 121 
e 99 119 
e 99 112 
e 99 110 
e 99 105 
e 99 103 
e 99 102 
e 99 101 
e 99 100 
e 98 165 
e 98 163 
e 98 138 
e 98 136 
e 98 135 
e 98 133 
e 98 112 
e 98 101 
e 98 100 
e 98 99 
e 97 136 
e 97 135 
e 97 134 
e 97 133 
e 97 131 
e 97 128 
e 97 127 
e 97 125 
e 97 124 
e 97 101 
e 97 100 
e 97 99 
e 97 98 
e 96 140 
e 96 138 
e 96 137 
e 96 136 
e 96 135 
e 96 125 
e 96 124 
e 96 121 
e 96 119 
e 96 114 
e 96 112 
e 96 110 
e 96 103 
e 96 101 
e 96 100 
e 96 99 
e 96 98 
e 96 97 
e 95 139 
e 95 138 
e 95 137 
e 95 136 
e 95 135 
e 95 134 
e 95 133 
e 95 128 
e 95 127 
e 95 126 
e 95 125 
e 95 124 
e 95 123 
e 95 122 
e 95 100 
e 95 97 
e 95 96 
e 94 140 
e 94 139 
e 94 138 
e 94 137 
e 94 136 
e 94 135 
e 94 125 
e 94 122 
e 94 121 
e 94 119 
e 94 117 
e 94 114 
e 94 112 
e 94 110 
e 94 103 
e 94 100 
e 94 98 
e 94 97 
e 94 96 
e 94 95 
e 93 142 
e 93 140 
e 93 139 
e 93 138 
e 93 137 
e 93 136 
e 93 135 
e 93 127 
e 93 125 
e 93 124 
e 93 123 
e 93 122 
e 93 121 
e 93 120 
e 93 119 
e 93 112 
e 93 109 
e 93 96 
e 93 95 
e 93 94 
e 92 140 
e 92 139 
e 92 137 
e 92 135 
e 92 127 
e 92 125 
e 92 122 
e 92 119 
e 92 95 
e 92 94 
e 92 93 
e 91 142 
e 91 140 
e 91 139 
e 91 137 
e 91 122 
e 91 119 
e 91 93 
e 91 92 
e 90 140 
e 90 138 
e 90 119 
e 90 117 
e 90 114 
e 90 95 
e 90 94 
e 90 93 
e 90 92 
e 90 91 
e 89 151 
e 89 150 
e 89 147 
e 89 146 
e 89 144 
e 89 142 
e 89 141 
e 89 140 
e 89 139 
e 89 138 
e 89 120 
e 89 119 
e 89 118 
e 89 117 
e 89 116 
e 89 115 
e 89 114 
e 89 113 
e 89 112 
e 89 111 
e 89 94 
e 89 93 
e 89 92 
e 89 91 
e 89 90 
e 88 147 
e 88 140 
e 88 117 
e 88 116 
e 88 90 
e 88 89 
e 87 151 
e 87 150 
e 87 148 
e 87 147 
e 87 146 
e 87 144 
e 87 143 
e 87 142 
e 87 141 
e 87 140 
e 87 139 
e 87 138 
e 87 120 
e 87 119 
e 87 118 
e 87 117 
e 87 116 
e 87 113 
e 87 91 
e 87 90 
e 87 89 
e 87 88 
e 86 151 
e 86 148 
e 86 147 
e 86 144 
e 86 89 
e 86 88 
e 86 87 
e 85 88 
e 85 87 
e 85 86 
e 84 142 
e 84 91 
e 84 89 
e 84 88 
e 84 87 
e 84 86 
e 84 85 
e 83 142 
e 83 140 
e 83 139 
e 83 92 
e 83 91 
e 83 90 
e 83 89 
e 83 88 
e 83 87 
e 83 85 
e 83 84 
e 82 150 
e 82 147 
e 82 146 
e 82 142 
e 82 141 
e 82 140 
e 82 139 
e 82 138 
e 82 122 
e 82 120 
e 82 119 
e 82 118 
e 82 117 
e 82 116 
e 82 111 
e 82 94 
e 82 93 
e 82 92 
e 82 91 
e 82 90 
e 82 89 
e 82 88 
e 82 87 
e 82 86 
e 82 84 
e 82 83 
e 81 147 
e 81 142 
e 81 140 
e 81 139 
e 81 91 
e 81 89 
e 81 87 
e 81 86 
e 81 84 
e 81 83 
e 81 82 
e 80 151 
e 80 150 
e 80 148 
e 80 147 
e 80 146 
e 80 145 
e 80 144 
e 80 143 
e 80 142 
e 80 141 
e 80 140 
e 80 120 
e 80 118 
e 80 117 
e 80 116 
e 80 89 
e 80 88 
e 80 87 
e 80 86 
e 80 85 
e 80 84 
e 80 82 
e 80 81 
e 79 148 
e 79 147 
e 79 146 
e 79 145 
e 79 144 
e 79 143 
e 79 142 
e 79 87 
e 79 86 
e 79 84 
e 79 81 
e 79 80 
e 78 143 
e 78 142 
e 78 139 
e 78 91 
e 78 86 
e 78 84 
e 78 83 
e 78 82 
e 78 81 
e 78 80 
e 78 79 
e 77 148 
e 77 147 
e 77 146 
e 77 145 
e 77 144 
e 77 143 
e 77 142 
e 77 141 
e 77 139 
e 77 120 
e 77 109 
e 77 80 
e 77 79 
e 77 78 
e 76 146 
e 76 143 
e 76 142 
e 76 141 
e 76 140 
e 76 139 
e 76 138 
e 76 137 
e 76 123 
e 76 122 
e 76 121 
e 76 120 
e 76 119 
e 76 118 
e 76 112 
e 76 111 
e 76 110 
e 76 109 
e 76 93 
e 76 91 
e 76 89 
e 76 87 
e 76 82 
e 76 81 
e 76 78 
e 76 77 
e 75 173 
e 75 171 
e 75 158 
e 75 155 
e 75 154 
e 75 150 
e 75 149 
e 75 147 
e 75 146 
e 75 145 
e 75 143 
e 75 142 
e 75 141 
e 75 140 
e 75 139 
e 75 138 
e 75 137 
e 75 122 
e 75 121 
e 75 120 
e 75 119 
e 75 118 
e 75 117 
e 75 113 
e 75 112 
e 75 111 
e 75 110 
e 75 109 
e 75 108 
e 75 107 
e 75 106 
e 75 105 
e 75 104 
e 75 103 
e 75 93 
e 75 89 
e 75 87 
e 75 82 
e 75 80 
e 75 79 
e 75 77 
e 75 76 
e 74 146 
e 74 145 
e 74 143 
e 74 142 
e 74 141 
e 74 139 
e 74 122 
e 74 120 
e 74 109 
e 74 107 
e 74 79 
e 74 78 
e 74 77 
e 74 76 
e 74 75 
e 73 176 
e 73 174 
e 73 173 
e 73 172 
e 73 171 
e 73 158 
e 73 155 
e 73 154 
e 73 152 
e 73 150 
e 73 149 
e 73 148 
e 73 147 
e 73 146 
e 73 145 
e 73 144 
e 73 143 
e 73 142 
e 73 141 
e 73 120 
e 73 118 
e 73 113 
e 73 111 
e 73 109 
e 73 107 
e 73 106 
e 73 104 
e 73 79 
e 73 77 
e 73 76 
e 73 75 
e 73 74 
e 72 176 
e 72 173 
e 72 172 
e 72 146 
e 72 145 
e 72 143 
e 72 120 
e 72 111 
e 72 109 
e 72 108 
e 72 107 
e 72 106 
e 72 77 
e 72 76 
e 72 75 
e 72 74 
e 72 73 
e 71 177 
e 71 176 
e 71 175 
e 71 174 
e 71 173 
e 71 172 
e 71 154 
e 71 149 
e 71 146 
e 71 145 
e 71 144 
e 71 143 
e 71 107 
e 71 106 
e 71 79 
e 71 77 
e 71 74 
e 71 73 
e 71 72 
e 70 178 
e 70 176 
e 70 175 
e 70 174 
e 70 173 
e 70 172 
e 70 171 
e 70 170 
e 70 169 
e 70 154 
e 70 149 
e 70 146 
e 70 145 
e 70 109 
e 70 108 
e 70 107 
e 70 106 
e 70 75 
e 70 73 
e 70 72 
e 70 71 
e 69 182 
e 69 180 
e 69 179 
e 69 178 
e 69 177 
e 69 176 
e 69 175 
e 69 174 
e 69 172 
e 69 107 
e 69 71 
e 69 70 
e 68 180 
e 68 178 
e 68 177 
e 68 176 
e 68 175 
e 68 174 
e 68 173 
e 68 172 
e 68 70 
e 68 69 
e 67 182 
e 67 181 
e 67 180 
e 67 179 
e 67 178 
e 67 177 
e 67 175 
e 67 172 
e 67 69 
e 67 68 
e 66 180 
e 66 179 
e 66 178 
e 66 177 
e 66 176 
e 66 175 
e 66 69 
e 66 68 
e 66 67 
e 65 181 
e 65 180 
e 65 179 
e 65 177 
e 65 68 
e 65 67 
e 65 66 
e 64 185 
e 64 183 
e 64 182 
e 64 181 
e 64 180 
e 64 179 
e 64 67 
e 64 66 
e 64 65 
e 63 185 
e 63 181 
e 63 180 
e 63 178 
e 63 68 
e 63 67 
e 63 66 
e 63 65 
e 63 64 
e 62 185 
e 62 184 
e 62 183 
e 62 182 
e 62 181 
e 62 180 
e 62 178 
e 62 69 
e 62 67 
e 62 64 
e 62 63 
e 61 185 
e 61 181 
e 61 180 
e 61 67 
e 61 64 
e 61 63 
e 61 62 
e 59 60 
e 58 184 
e 58 60 
e 58 59 
e 57 60 
e 57 59 
e 57 58 
e 56 59 
e 56 58 
e 56 57 
e 55 59 
e 55 57 
e 55 56 
e 54 184 
e 54 183 
e 54 58 
e 54 56 
e 54 55 
e 53 74 
e 53 56 
e 53 55 
e 53 54 
e 52 184 
e 52 183 
e 52 182 
e 52 179 
e 52 178 
e 52 72 
e 52 58 
e 52 55 
e 52 54 
e 52 53 
e 51 55 
e 51 53 
e 51 52 
e 50 184 
e 50 183 
e 50 178 
e 50 74 
e 50 72 
e 50 69 
e 50 53 
e 50 52 
e 50 51 
e 49 183 
e 49 182 
e 49 181 
e 49 180 
e 49 179 
e 49 178 
e 49 177 
e 49 176 
e 49 72 
e 49 71 
e 49 69 
e 49 67 
e 49 66 
e 49 62 
e 49 52 
e 49 51 
e 49 50 
e 48 185 
e 48 184 
e 48 183 
e 48 182 
e 48 181 
e 48 180 
e 48 179 
e 48 178 
e 48 177 
e 48 176 
e 48 70 
e 48 69 
e 48 68 
e 48 67 
e 48 66 
e 48 63 
e 48 62 
e 48 52 
e 48 50 
e 48 49 
e 47 185 
e 47 182 
e 47 181 
e 47 180 
e 47 178 
e 47 108 
e 47 69 
e 47 67 
e 47 62 
e 47 49 
e 47 48 
e 46 173 
e 46 172 
e 46 169 
e 46 146 
e 46 110 
e 46 109 
e 46 108 
e 46 107 
e 46 106 
e 46 105 
e 46 75 
e 46 74 
e 46 73 
e 46 72 
e 46 70 
e 46 48 
e 46 47 
e 45 182 
e 45 180 
e 45 178 
e 45 172 
e 45 169 
e 45 108 
e 45 105 
e 45 70 
e 45 69 
e 45 68 
e 45 67 
e 45 62 
e 45 48 
e 45 47 
e 45 46 
e 44 178 
e 44 175 
e 44 173 
e 44 172 
e 44 171 
e 44 170 
e 44 169 
e 44 108 
e 44 107 
e 44 106 
e 44 105 
e 44 70 
e 44 69 
e 44 68 
e 44 67 
e 44 48 
e 44 47 
e 44 46 
e 44 45 
e 43 185 
e 43 182 
e 43 181 
e 43 180 
e 43 179 
e 43 178 
e 43 177 
e 43 176 
e 43 172 
e 43 108 
e 43 107 
e 43 72 
e 43 70 
e 43 69 
e 43 68 
e 43 67 
e 43 66 
e 43 63 
e 43 62 
e 43 49 
e 43 48 
e 43 47 
e 43 46 
e 43 45 
e 43 44 
e 42 182 
e 42 179 
e 42 178 
e 42 177 
e 42 176 
e 42 175 
e 42 174 
e 42 173 
e 42 145 
e 42 107 
e 42 73 
e 42 72 
e 42 71 
e 42 70 
e 42 69 
e 42 68 
e 42 67 
e 42 66 
e 42 52 
e 42 51 
e 42 50 
e 42 49 
e 42 48 
e 42 43 
e 41 178 
e 41 176 
e 41 145 
e 41 143 
e 41 109 
e 41 108 
e 41 107 
e 41 77 
e 41 75 
e 41 74 
e 41 73 
e 41 72 
e 41 71 
e 41 70 
e 41 69 
e 41 53 
e 41 52 
e 41 51 
e 41 50 
e 41 49 
e 41 48 
e 41 46 
e 41 42 
e 40 178 
e 40 177 
e 40 176 
e 40 174 
e 40 145 
e 40 77 
e 40 74 
e 40 73 
e 40 72 
e 40 71 
e 40 70 
e 40 69 
e 40 51 
e 40 50 
e 40 49 
e 40 42 
e 40 41 
e 39 74 
e 39 53 
e 39 51 
e 39 50 
e 39 49 
e 39 42 
e 39 41 
e 39 40 
e 38 77 
e 38 74 
e 38 72 
e 38 55 
e 38 54 
e 38 53 
e 38 52 
e 38 51 
e 38 50 
e 38 41 
e 38 40 
e 38 39 
e 37 184 
e 37 183 
e 37 182 
e 37 178 
e 37 109 
e 37 108 
e 37 107 
e 37 77 
e 37 74 
e 37 72 
e 37 71 
e 37 70 
e 37 55 
e 37 53 
e 37 52 
e 37 51 
e 37 50 
e 37 49 
e 37 48 
e 37 46 
e 37 42 
e 37 41 
e 37 40 
e 37 39 
e 37 38 
e 36 77 
e 36 74 
e 36 72 
e 36 59 
e 36 56 
e 36 55 
e 36 54 
e 36 53 
e 36 52 
e 36 51 
e 36 50 
e 36 41 
e 36 39 
e 36 38 
e 36 37 
e 35 184 
e 35 183 
e 35 182 
e 35 59 
e 35 58 
e 35 56 
e 35 55 
e 35 54 
e 35 53 
e 35 52 
e 35 51 
e 35 50 
e 35 41 
e 35 38 
e 35 37 
e 35 36 
e 34 184 
e 34 59 
e 34 58 
e 34 57 
e 34 56 
e 34 55 
e 34 54 
e 34 53 
e 34 52 
e 34 37 
e 34 36 
e 34 35 
e 33 60 
e 33 58 
e 33 57 
e 33 54 
e 33 34 
e 32 184 
e 32 183 
e 32 58 
e 32 54 
e 32 52 
e 32 35 
e 32 33 
e 31 185 
e 31 184 
e 31 183 
e 31 182 
e 31 179 
e 31 58 
e 31 54 
e 31 53 
e 31 52 
e 31 50 
e 31 37 
e 31 36 
e 31 35 
e 31 34 
e 31 33 
e 31 32 
e 30 184 
e 30 183 
e 30 60 
e 30 59 
e 30 58 
e 30 57 
e 30 54 
e 30 52 
e 30 35 
e 30 34 
e 30 33 
e 30 32 
e 30 31 
e 29 184 
e 29 183 
e 29 182 
e 29 72 
e 29 58 
e 29 54 
e 29 53 
e 29 52 
e 29 51 
e 29 50 
e 29 49 
e 29 48 
e 29 41 
e 29 38 
e 29 37 
e 29 36 
e 29 35 
e 29 34 
e 29 32 
e 29 31 
e 29 30 
e 28 184 
e 28 74 
e 28 72 
e 28 59 
e 28 58 
e 28 57 
e 28 56 
e 28 55 
e 28 53 
e 28 52 
e 28 50 
e 28 41 
e 28 38 
e 28 37 
e 28 36 
e 28 35 
e 28 34 
e 28 31 
e 28 30 
e 28 29 
e 27 184 
e 27 173 
e 27 146 
e 27 120 
e 27 109 
e 27 108 
e 27 107 
e 27 77 
e 27 75 
e 27 74 
e 27 73 
e 27 72 
e 27 71 
e 27 70 
e 27 53 
e 27 52 
e 27 50 
e 27 49 
e 27 48 
e 27 47 
e 27 46 
e 27 42 
e 27 41 
e 27 40 
e 27 39 
e 27 38 
e 27 37 
e 27 36 
e 27 35 
e 27 34 
e 27 31 
e 27 29 
e 27 28 
e 26 109 
e 26 78 
e 26 77 
e 26 76 
e 26 74 
e 26 72 
e 26 59 
e 26 56 
e 26 55 
e 26 53 
e 26 50 
e 26 41 
e 26 38 
e 26 37 
e 26 36 
e 26 35 
e 26 34 
e 26 28 
e 26 27 
e 25 173 
e 25 146 
e 25 142 
e 25 141 
e 25 139 
e 25 138 
e 25 137 
e 25 136 
e 25 123 
e 25 122 
e 25 121 
e 25 120 
e 25 118 
e 25 112 
e 25 111 
e 25 110 
e 25 109 
e 25 108 
e 25 107 
e 25 106 
e 25 105 
e 25 93 
e 25 77 
e 25 76 
e 25 75 
e 25 74 
e 25 73 
e 25 72 
e 25 46 
e 25 41 
e 25 28 
e 25 27 
e 25 26 
e 24 139 
e 24 122 
e 24 120 
e 24 109 
e 24 93 
e 24 78 
e 24 77 
e 24 76 
e 24 75 
e 24 74 
e 24 55 
e 24 38 
e 24 36 
e 24 28 
e 24 27 
e 24 26 
e 24 25 
e 23 139 
e 23 137 
e 23 134 
e 23 125 
e 23 124 
e 23 123 
e 23 122 
e 23 120 
e 23 109 
e 23 95 
e 23 93 
e 23 76 
e 23 75 
e 23 74 
e 23 28 
e 23 26 
e 23 25 
e 23 24 
e 22 139 
e 22 137 
e 22 136 
e 22 134 
e 22 125 
e 22 124 
e 22 123 
e 22 122 
e 22 121 
e 22 120 
e 22 110 
e 22 109 
e 22 108 
e 22 105 
e 22 99 
e 22 76 
e 22 75 
e 22 59 
e 22 28 
e 22 25 
e 22 24 
e 22 23 
e 21 123 
e 21 122 
e 21 109 
e 21 74 
e 21 59 
e 21 56 
e 21 55 
e 21 38 
e 21 36 
e 21 35 
e 21 34 
e 21 29 
e 21 28 
e 21 27 
e 21 26 
e 21 25 
e 21 24 
e 21 23 
e 21 22 
e 20 173 
e 20 146 
e 20 141 
e 20 122 
e 20 121 
e 20 120 
e 20 111 
e 20 110 
e 20 109 
e 20 108 
e 20 107 
e 20 106 
e 20 105 
e 20 76 
e 20 75 
e 20 74 
e 20 73 
e 20 72 
e 20 70 
e 20 52 
e 20 50 
e 20 47 
e 20 46 
e 20 43 
e 20 41 
e 20 37 
e 20 36 
e 20 29 
e 20 28 
e 20 27 
e 20 26 
e 20 25 
e 20 24 
e 20 22 
e 20 21 
e 19 184 
e 19 183 
e 19 182 
e 19 178 
e 19 109 
e 19 108 
e 19 107 
e 19 74 
e 19 72 
e 19 70 
e 19 69 
e 19 52 
e 19 50 
e 19 49 
e 19 48 
e 19 47 
e 19 46 
e 19 41 
e 19 37 
e 19 36 
e 19 35 
e 19 34 
e 19 31 
e 19 30 
e 19 29 
e 19 28 
e 19 27 
e 19 26 
e 19 25 
e 19 21 
e 19 20 
e 18 185 
e 18 184 
e 18 182 
e 18 181 
e 18 62 
e 18 60 
e 18 58 
e 18 48 
e 18 47 
e 18 45 
e 18 31 
e 18 30 
e 18 29 
e 18 28 
e 18 27 
e 18 19 
e 17 185 
e 17 184 
e 17 183 
e 17 182 
e 17 181 
e 17 180 
e 17 179 
e 17 178 
e 17 69 
e 17 67 
e 17 63 
e 17 62 
e 17 61 
e 17 52 
e 17 49 
e 17 48 
e 17 47 
e 17 45 
e 17 43 
e 17 37 
e 17 35 
e 17 31 
e 17 30 
e 17 29 
e 17 27 
e 17 19 
e 17 18 
e 16 185 
e 16 184 
e 16 183 
e 16 182 
e 16 179 
e 16 178 
e 16 72 
e 16 69 
e 16 62 
e 16 58 
e 16 54 
e 16 53 
e 16 52 
e 16 51 
e 16 50 
e 16 49 
e 16 48 
e 16 47 
e 16 43 
e 16 41 
e 16 38 
e 16 37 
e 16 36 
e 16 35 
e 16 34 
e 16 32 
e 16 31 
e 16 30 
e 16 29 
e 16 28 
e 16 27 
e 16 20 
e 16 19 
e 16 18 
e 16 17 
e 15 185 
e 15 184 
e 15 183 
e 15 182 
e 15 181 
e 15 180 
e 15 179 
e 15 178 
e 15 177 
e 15 176 
e 15 69 
e 15 67 
e 15 66 
e 15 63 
e 15 62 
e 15 52 
e 15 50 
e 15 49 
e 15 48 
e 15 47 
e 15 45 
e 15 43 
e 15 42 
e 15 37 
e 15 35 
e 15 31 
e 15 29 
e 15 27 
e 15 19 
e 15 18 
e 15 17 
e 15 16 
e 14 184 
e 14 183 
e 14 182 
e 14 181 
e 14 180 
e 14 179 
e 14 178 
e 14 64 
e 14 54 
e 14 52 
e 14 51 
e 14 50 
e 14 49 
e 14 48 
e 14 41 
e 14 37 
e 14 35 
e 14 32 
e 14 31 
e 14 29 
e 14 27 
e 14 19 
e 14 17 
e 14 16 
e 14 15 
e 13 183 
e 13 179 
e 13 66 
e 13 53 
e 13 52 
e 13 51 
e 13 50 
e 13 49 
e 13 42 
e 13 40 
e 13 39 
e 13 38 
e 13 16 
e 13 15 
e 13 14 
e 12 184 
e 12 183 
e 12 182 
e 12 179 
e 12 54 
e 12 53 
e 12 52 
e 12 51 
e 12 50 
e 12 49 
e 12 37 
e 12 35 
e 12 32 
e 12 31 
e 12 30 
e 12 29 
e 12 27 
e 12 19 
e 12 16 
e 12 15 
e 12 14 
e 12 13 
e 11 183 
e 11 55 
e 11 54 
e 11 53 
e 11 52 
e 11 51 
e 11 50 
e 11 39 
e 11 38 
e 11 36 
e 11 35 
e 11 31 
e 11 14 
e 11 13 
e 11 12 
e 10 183 
e 10 54 
e 10 53 
e 10 51 
e 10 35 
e 10 32 
e 10 31 
e 10 13 
e 10 12 
e 10 11 
e 9 184 
e 9 183 
e 9 57 
e 9 54 
e 9 53 
e 9 52 
e 9 35 
e 9 34 
e 9 33 
e 9 32 
e 9 31 
e 9 29 
e 9 16 
e 9 14 
e 9 12 
e 9 11 
e 9 10 
e 8 54 
e 8 10 
e 8 9 
e 7 57 
e 7 56 
e 7 55 
e 7 54 
e 7 53 
e 7 36 
e 7 11 
e 7 9 
e 7 8 
e 6 57 
e 6 54 
e 6 33 
e 6 32 
e 6 9 
e 6 8 
e 6 7 
e 5 9 
e 5 8 
e 5 7 
e 5 6 
e 4 59 
e 4 57 
e 4 56 
e 4 55 
e 4 34 
e 4 8 
e 4 7 
e 4 6 
e 4 5 
e 3 57 
e 3 33 
e 3 8 
e 3 7 
e 3 6 
e 3 5 
e 3 4 
e 2 59 
e 2 58 
e 2 57 
e 2 54 
e 2 35 
e 2 34 
e 2 33 
e 2 32 
e 2 31 
e 2 30 
e 2 12 
e 2 9 
e 2 8 
e 2 6 
e 2 5 
e 2 4 
e 2 3 
e 1 58 
e 1 57 
e 1 33 
e 1 6 
e 1 3 
e 1 2 
